(declare-const X String)
; \x5BStaticHost\x3AFROM\x3Acs\x2Eshopperreports\x2Ecommedia\x2Etop-banners\x2Ecom\x2Fbar_pl\x2Fb\.fcgi
(assert (not (str.in_re X (str.to_re "[StaticHost:FROM:cs.shopperreports.commedia.top-banners.com/bar_pl/b.fcgi\u{a}"))))
(check-sat)
